data;
param n:=100;
param w:=1 439 2 -471 3 300 4 -43 5 -347 6 -227 7 -231 8 210 9 143 10 -198 11 -389 12 235 13 -96 14 -368 15 -358 16 354 17 -109 18 214 19 -121 20 -96 21 -97 22 336 23 -303 24 448 25 -379 26 -165 27 298 28 20 29 60 30 284 31 -103 32 -182 33 328 34 -427 35 57 36 158 37 190 38 89 39 107 40 -436 41 420 42 -316 43 -387 44 341 45 211 46 272 47 455 48 449 49 329 50 -363 51 198 52 392 53 -526 54 154 55 384 56 366 57 -200 58 -153 59 61 60 189 61 67 62 345 63 339 64 -168 65 269 66 -111 67 413 68 36 69 -102 70 23 71 156 72 360 73 -434 74 290 75 322 76 -185 77 -77 78 71 79 386 80 -433 81 -292 82 -228 83 313 84 -42 85 231 86 -351 87 -147 88 146 89 193 90 -456 91 -459 92 -289 93 -166 94 -259 95 -269 96 -61 97 -347 98 131 99 -119 100 -496;
